Ba Ti  O 
 1.0000000000000000
     3.9354326311091374    0.0000000000000000    0.0000000000000000
     0.0000000000000000    3.9354326311091374    0.0000000000000000
     0.0000000000000000    0.0000000000000000    3.9354326311091374
  Ba  Ti   O
   1   1   3
Cartesian
  0.0000000000000000  0.0000000000000000  0.0000000000000000
  1.9677163155545687  1.9677163155545687  1.9677163155545687
  1.9677163155545687  1.9677163155545687  0.0000000000000000
  0.0000000000000000  1.9677163155545687  1.9677163155545687
  1.9677163155545687  0.0000000000000000  1.9677163155545687
